\ Model MPC
\ LP format - for model browsing. Use MPS format to capture full model detail.
Minimize
 [ 2.17014e-06 y[0,0] ^2 + 2.82449e-07 y[0,1] ^2 + 1.82326e-07 y[0,2] ^2
   + 1.54707e-06 y[0,3] ^2 + 2.17014e-06 y[1,0] ^2 + 2.82449e-07 y[1,1] ^2
   + 1.82326e-07 y[1,2] ^2 + 1.54707e-06 y[1,3] ^2 + 2.17014e-06 y[2,0] ^2
   + 2.82449e-07 y[2,1] ^2 + 1.82326e-07 y[2,2] ^2 + 1.54707e-06 y[2,3] ^2
   + 2.17014e-06 y[3,0] ^2 + 2.82449e-07 y[3,1] ^2 + 1.82326e-07 y[3,2] ^2
   + 1.54707e-06 y[3,3] ^2 + 2.17014e-06 y[4,0] ^2 + 2.82449e-07 y[4,1] ^2
   + 1.82326e-07 y[4,2] ^2 + 1.54707e-06 y[4,3] ^2 + 2.17014e-06 y[5,0] ^2
   + 2.82449e-07 y[5,1] ^2 + 1.82326e-07 y[5,2] ^2 + 1.54707e-06 y[5,3] ^2
   + 0.1 z[0,0] ^2 + 0.2 z[0,1] ^2 + 0.5 z[0,2] ^2 + 0.5 z[0,3] ^2
   + 0.1 z[1,0] ^2 + 0.2 z[1,1] ^2 + 0.5 z[1,2] ^2 + 0.5 z[1,3] ^2
   + 0.1 z[2,0] ^2 + 0.2 z[2,1] ^2 + 0.5 z[2,2] ^2 + 0.5 z[2,3] ^2
   + 0.1 z[3,0] ^2 + 0.2 z[3,1] ^2 + 0.5 z[3,2] ^2 + 0.5 z[3,3] ^2
   + 0.1 z[4,0] ^2 + 0.2 z[4,1] ^2 + 0.5 z[4,2] ^2 + 0.5 z[4,3] ^2 ] / 2 
Subject To
 R0: x[0,0] = 51
 R1: x[0,1] = 109
 R2: x[0,2] = 58
 R3: x[0,3] = 268
 R4: u[0,0] - u[0,1] = 0
 R5: u[0,3] - u_41 - u_43 = 0
 R6: u[0,2] + u_41 - u_43 = -3
 R7: - u[0,0] - u[0,2] + C - u_41 = 9
 R8: - 5 u_41 + u_43 >= 0
 R9: u[0,0] >= 45
 R10: u[0,0] - u[0,2] >= 0
 R11: - u[0,0] + u[0,3] >= 0
 R12: - u[0,2] + u[0,3] >= 0
 R13: u[0,2] >= 24
 R14: u[0,2] - u_41 >= 0
 R15: u[0,3] >= 111
 R16: - x[0,0] + y[0,0] = 0
 R17: - x[0,1] + y[0,1] = 0
 R18: - x[0,2] + y[0,2] = 0
 R19: - x[0,3] + y[0,3] = 0
 R20: z[0,0] = 0
 R21: z[0,1] = 0
 R22: z[0,2] = 0
 R23: z[0,3] = 0
 R24: u[1,0] - u[1,1] = 0
 R25: u[1,3] - u_41 - u_43 = 0
 R26: u[1,2] + u_41 - u_43 = -3
 R27: - u[1,0] - u[1,2] + C - u_41 = 9
 R28: - 5 u_41 + u_43 >= 0
 R29: u[1,0] >= 45
 R30: u[1,0] - u[1,2] >= 0
 R31: - u[1,0] + u[1,3] >= 0
 R32: - u[1,2] + u[1,3] >= 0
 R33: u[1,2] >= 24
 R34: u[1,2] - u_41 >= 0
 R35: u[1,3] >= 111
 R36: - x[1,0] + y[1,0] = 0
 R37: - x[1,1] + y[1,1] = 0
 R38: - x[1,2] + y[1,2] = 0
 R39: - x[1,3] + y[1,3] = 0
 R40: u[0,0] - u[1,0] + z[1,0] = 0
 R41: u[0,1] - u[1,1] + z[1,1] = 0
 R42: u[0,2] - u[1,2] + z[1,2] = 0
 R43: u[0,3] - u[1,3] + z[1,3] = 0
 R44: u[2,0] - u[2,1] = 0
 R45: u[2,3] - u_41 - u_43 = 0
 R46: u[2,2] + u_41 - u_43 = -3
 R47: - u[2,0] - u[2,2] + C - u_41 = 9
 R48: - 5 u_41 + u_43 >= 0
 R49: u[2,0] >= 45
 R50: u[2,0] - u[2,2] >= 0
 R51: - u[2,0] + u[2,3] >= 0
 R52: - u[2,2] + u[2,3] >= 0
 R53: u[2,2] >= 24
 R54: u[2,2] - u_41 >= 0
 R55: u[2,3] >= 111
 R56: - x[2,0] + y[2,0] = 0
 R57: - x[2,1] + y[2,1] = 0
 R58: - x[2,2] + y[2,2] = 0
 R59: - x[2,3] + y[2,3] = 0
 R60: u[0,0] - u[2,0] + z[2,0] = 0
 R61: u[0,1] - u[2,1] + z[2,1] = 0
 R62: u[0,2] - u[2,2] + z[2,2] = 0
 R63: u[0,3] - u[2,3] + z[2,3] = 0
 R64: u[3,0] - u[3,1] = 0
 R65: u[3,3] - u_41 - u_43 = 0
 R66: u[3,2] + u_41 - u_43 = -3
 R67: - u[3,0] - u[3,2] + C - u_41 = 9
 R68: - 5 u_41 + u_43 >= 0
 R69: u[3,0] >= 45
 R70: u[3,0] - u[3,2] >= 0
 R71: - u[3,0] + u[3,3] >= 0
 R72: - u[3,2] + u[3,3] >= 0
 R73: u[3,2] >= 24
 R74: u[3,2] - u_41 >= 0
 R75: u[3,3] >= 111
 R76: - x[3,0] + y[3,0] = 0
 R77: - x[3,1] + y[3,1] = 0
 R78: - x[3,2] + y[3,2] = 0
 R79: - x[3,3] + y[3,3] = 0
 R80: u[0,0] - u[3,0] + z[3,0] = 0
 R81: u[0,1] - u[3,1] + z[3,1] = 0
 R82: u[0,2] - u[3,2] + z[3,2] = 0
 R83: u[0,3] - u[3,3] + z[3,3] = 0
 R84: u[4,0] - u[4,1] = 0
 R85: u[4,3] - u_41 - u_43 = 0
 R86: u[4,2] + u_41 - u_43 = -3
 R87: - u[4,0] - u[4,2] + C - u_41 = 9
 R88: - 5 u_41 + u_43 >= 0
 R89: u[4,0] >= 45
 R90: u[4,0] - u[4,2] >= 0
 R91: - u[4,0] + u[4,3] >= 0
 R92: - u[4,2] + u[4,3] >= 0
 R93: u[4,2] >= 24
 R94: u[4,2] - u_41 >= 0
 R95: u[4,3] >= 111
 R96: - x[4,0] + y[4,0] = 0
 R97: - x[4,1] + y[4,1] = 0
 R98: - x[4,2] + y[4,2] = 0
 R99: - x[4,3] + y[4,3] = 0
 R100: u[0,0] - u[4,0] + z[4,0] = 0
 R101: u[0,1] - u[4,1] + z[4,1] = 0
 R102: u[0,2] - u[4,2] + z[4,2] = 0
 R103: u[0,3] - u[4,3] + z[4,3] = 0
 R104: - x[5,0] + y[5,0] = 0
 R105: - x[5,1] + y[5,1] = 0
 R106: - x[5,2] + y[5,2] = 0
 R107: - x[5,3] + y[5,3] = 0
 qc0: - x[0,0] + x[1,0] + [ 46.72222222222222 u[0,0] * C_dummy ] = 102
 qc1: - x[0,1] + x[1,1] + [ 83.88888888888889 u[0,1] * C_dummy ] = 132
 qc2: - x[0,2] + x[1,2] + [ 112.0555555555556 u[0,2] * C_dummy ] = 145
 qc3: - x[0,3] + x[1,3] + [ 177.7777777777778 u[0,3] * C_dummy ] = 192
 qc4: [ C * C_dummy ] = 1
 qc5: - x[1,0] + x[2,0] + [ 46.72222222222222 u[1,0] * C_dummy ] = 91
 qc6: - x[1,1] + x[2,1] + [ 83.88888888888889 u[1,1] * C_dummy ] = 118
 qc7: - x[1,2] + x[2,2] + [ 112.0555555555556 u[1,2] * C_dummy ] = 134
 qc8: - x[1,3] + x[2,3] + [ 177.7777777777778 u[1,3] * C_dummy ] = 170
 qc9: [ C * C_dummy ] = 1
 qc10: - x[2,0] + x[3,0] + [ 46.72222222222222 u[2,0] * C_dummy ] = 88
 qc11: - x[2,1] + x[3,1] + [ 83.88888888888889 u[2,1] * C_dummy ] = 84
 qc12: - x[2,2] + x[3,2] + [ 112.0555555555556 u[2,2] * C_dummy ] = 139
 qc13: - x[2,3] + x[3,3] + [ 177.7777777777778 u[2,3] * C_dummy ] = 170
 qc14: [ C * C_dummy ] = 1
 qc15: - x[3,0] + x[4,0] + [ 46.72222222222222 u[3,0] * C_dummy ] = 88
 qc16: - x[3,1] + x[4,1] + [ 83.88888888888889 u[3,1] * C_dummy ] = 114
 qc17: - x[3,2] + x[4,2] + [ 112.0555555555556 u[3,2] * C_dummy ] = 137
 qc18: - x[3,3] + x[4,3] + [ 177.7777777777778 u[3,3] * C_dummy ] = 183
 qc19: [ C * C_dummy ] = 1
 qc20: - x[4,0] + x[5,0] + [ 46.72222222222222 u[4,0] * C_dummy ] = 89
 qc21: - x[4,1] + x[5,1] + [ 83.88888888888889 u[4,1] * C_dummy ] = 127
 qc22: - x[4,2] + x[5,2] + [ 112.0555555555556 u[4,2] * C_dummy ] = 135
 qc23: - x[4,3] + x[5,3] + [ 177.7777777777778 u[4,3] * C_dummy ] = 169
 qc24: [ C * C_dummy ] = 1
Bounds
 u[0,0] >= 15
 u[0,1] >= 15
 u[0,2] >= 15
 u[0,3] >= 15
 u[1,0] >= 15
 u[1,1] >= 15
 u[1,2] >= 15
 u[1,3] >= 15
 u[2,0] >= 15
 u[2,1] >= 15
 u[2,2] >= 15
 u[2,3] >= 15
 u[3,0] >= 15
 u[3,1] >= 15
 u[3,2] >= 15
 u[3,3] >= 15
 u[4,0] >= 15
 u[4,1] >= 15
 u[4,2] >= 15
 u[4,3] >= 15
 50 <= C <= 200
 u_41 >= 15
 u_43 >= 15
 y[0,0] free
 y[0,1] free
 y[0,2] free
 y[0,3] free
 y[1,0] free
 y[1,1] free
 y[1,2] free
 y[1,3] free
 y[2,0] free
 y[2,1] free
 y[2,2] free
 y[2,3] free
 y[3,0] free
 y[3,1] free
 y[3,2] free
 y[3,3] free
 y[4,0] free
 y[4,1] free
 y[4,2] free
 y[4,3] free
 y[5,0] free
 y[5,1] free
 y[5,2] free
 y[5,3] free
 z[0,0] free
 z[0,1] free
 z[0,2] free
 z[0,3] free
 z[1,0] free
 z[1,1] free
 z[1,2] free
 z[1,3] free
 z[2,0] free
 z[2,1] free
 z[2,2] free
 z[2,3] free
 z[3,0] free
 z[3,1] free
 z[3,2] free
 z[3,3] free
 z[4,0] free
 z[4,1] free
 z[4,2] free
 z[4,3] free
Generals
 u[0,0] u[0,1] u[0,2] u[0,3] u[1,0] u[1,1] u[1,2] u[1,3] u[2,0] u[2,1]
 u[2,2] u[2,3] u[3,0] u[3,1] u[3,2] u[3,3] u[4,0] u[4,1] u[4,2] u[4,3] C
 u_41 u_43
End
